41492524645779866235011,2,1,2,010,12,1,2,012,10,1,2,02,4,1,2,015,1,1,2,015,5,1,2,06,1,1,2,012,8,1,2,06,1,1,2,05,8,1,2,03,7,1,2,011,14,1,2,013,4,1,2,010,15,1,2,08,14,1,2,02,13,1,2,015,7,1,2,013,7,1,2,05,13,1,2,05,9,1,2,013,13,1,2,014,8,1,2,02,5,1,2,05,14,1,2,011,9,1,2,04,10,1,2,07,4,1,2,04,6,1,2,05,14,1,2,07,4,1,2,010,10,1,2,03,14,1,2,010,1,1,2,06,3,1,2,03,2,1,2,012,4,1,2,07,8,1,2,013,10,1,2,06,2,1,2,013,4,1,2,012,6,1,2,06,13,1,2,03,3,1,2,04,8,1,2,07,9,1,2,015,14,1,2,014,5,1,2,05,6,1,2,011,3,1,2,015,5,1,2,0